c ind 1 14 15 16 17 18 19 20 21 22 23 24 25 26 27 28 29 0
p cnf 62 114
-4 -6 0
5 -6 0
4 -5 6 0
-4 -8 0
5 -8 0
7 -8 0
4 -5 -7 8 0
-4 -10 0
5 -10 0
7 -10 0
9 -10 0
4 -5 -7 -9 10 0
-4 -12 0
5 -12 0
7 -12 0
9 -12 0
11 -12 0
4 -5 -7 -9 -11 12 0
13 0
-1 14 -30 0
1 -14 -30 0
-1 -14 30 0
1 14 30 0
-30 0
1 -32 0
-19 -32 0
-1 19 32 0
-2 -32 -33 0
2 32 -33 0
-2 32 33 0
2 -32 33 0
-33 0
2 -35 0
-24 -35 0
-2 24 35 0
-3 -35 -36 0
3 35 -36 0
-3 35 36 0
3 -35 36 0
-36 0
3 -38 0
-29 -38 0
-3 29 38 0
-4 -38 -39 0
4 38 -39 0
-4 38 39 0
4 -38 39 0
-39 0
-29 40 0
29 -40 0
-29 -41 0
29 -41 0
29 42 0
-41 42 0
-29 41 -42 0
-5 -42 -43 0
5 42 -43 0
-5 42 43 0
5 -42 43 0
-43 0
-19 44 0
19 -44 0
-19 -45 0
19 -45 0
19 46 0
-45 46 0
-19 45 -46 0
-7 -46 -47 0
7 46 -47 0
-7 46 47 0
7 -46 47 0
-47 0
-14 48 0
14 -48 0
-14 -49 0
14 -49 0
14 50 0
-49 50 0
-14 49 -50 0
-9 -50 -51 0
9 50 -51 0
-9 50 51 0
9 -50 51 0
-51 0
-24 52 0
24 -52 0
-24 -53 0
24 -53 0
24 54 0
-53 54 0
-24 53 -54 0
-11 -54 -55 0
11 54 -55 0
-11 54 55 0
11 -54 55 0
-55 0
-4 0
5 0
7 0
9 0
11 0
-56 -58 -60 0
56 58 -60 0
-56 58 60 0
56 -58 60 0
-57 -59 -61 0
57 59 -61 0
-57 59 61 0
57 -59 61 0
-60 -62 0
-61 -62 0
60 61 62 0
-13 62 0
13 -62 0
c __CPROVER_malloc_is_new_array#1 FALSE
c check::$tmp::tmp_if_expr$1!0@1#1 31
c goto_symex::\guard#1 1
c check::$tmp::tmp_if_expr$1!0@1#2 -19
c check::$tmp::tmp_if_expr$1!0@1#3 31
c check::$tmp::tmp_if_expr$1!0@1#4 FALSE
c check::$tmp::tmp_if_expr$1!0@1#5 2
c check::$tmp::tmp_if_expr$2!0@1#1 34
c check::$tmp::tmp_if_expr$2!0@1#2 -24
c check::$tmp::tmp_if_expr$2!0@1#3 34
c check::$tmp::tmp_if_expr$2!0@1#4 FALSE
c check::$tmp::tmp_if_expr$2!0@1#5 3
c check::$tmp::tmp_if_expr$3!0@1#1 37
c check::$tmp::tmp_if_expr$3!0@1#2 -29
c check::$tmp::tmp_if_expr$3!0@1#3 37
c check::$tmp::tmp_if_expr$3!0@1#4 FALSE
c check::$tmp::tmp_if_expr$3!0@1#5 4
c goto_symex::\guard#2 5
c goto_symex::\guard#3 7
c goto_symex::\guard#4 9
c goto_symex::\guard#5 11
c __CPROVER_thread_id!0#1 FALSE FALSE FALSE FALSE FALSE FALSE FALSE FALSE FALSE FALSE FALSE FALSE FALSE FALSE FALSE FALSE FALSE FALSE FALSE FALSE FALSE FALSE FALSE FALSE FALSE FALSE FALSE FALSE FALSE FALSE FALSE FALSE FALSE FALSE FALSE FALSE FALSE FALSE FALSE FALSE FALSE FALSE FALSE FALSE FALSE FALSE FALSE FALSE FALSE FALSE FALSE FALSE FALSE FALSE FALSE FALSE FALSE FALSE FALSE FALSE FALSE FALSE FALSE FALSE
c __CPROVER_rounding_mode!0#1 FALSE FALSE FALSE FALSE FALSE FALSE FALSE FALSE FALSE FALSE FALSE FALSE FALSE FALSE FALSE FALSE FALSE FALSE FALSE FALSE FALSE FALSE FALSE FALSE FALSE FALSE FALSE FALSE FALSE FALSE FALSE FALSE
c __CPROVER_pipe_count#1 FALSE FALSE FALSE FALSE FALSE FALSE FALSE FALSE FALSE FALSE FALSE FALSE FALSE FALSE FALSE FALSE FALSE FALSE FALSE FALSE FALSE FALSE FALSE FALSE FALSE FALSE FALSE FALSE FALSE FALSE FALSE FALSE
c __CPROVER_deallocated#1 FALSE FALSE FALSE FALSE FALSE FALSE FALSE FALSE FALSE FALSE FALSE FALSE FALSE FALSE FALSE FALSE FALSE FALSE FALSE FALSE FALSE FALSE FALSE FALSE FALSE FALSE FALSE FALSE FALSE FALSE FALSE FALSE FALSE FALSE FALSE FALSE FALSE FALSE FALSE FALSE FALSE FALSE FALSE FALSE FALSE FALSE FALSE FALSE FALSE FALSE FALSE FALSE FALSE FALSE FALSE FALSE FALSE FALSE FALSE FALSE FALSE FALSE FALSE FALSE
c __CPROVER_dead_object#1 FALSE FALSE FALSE FALSE FALSE FALSE FALSE FALSE FALSE FALSE FALSE FALSE FALSE FALSE FALSE FALSE FALSE FALSE FALSE FALSE FALSE FALSE FALSE FALSE FALSE FALSE FALSE FALSE FALSE FALSE FALSE FALSE FALSE FALSE FALSE FALSE FALSE FALSE FALSE FALSE FALSE FALSE FALSE FALSE FALSE FALSE FALSE FALSE FALSE FALSE FALSE FALSE FALSE FALSE FALSE FALSE FALSE FALSE FALSE FALSE FALSE FALSE FALSE FALSE
c __CPROVER_next_thread_id#1 FALSE FALSE FALSE FALSE FALSE FALSE FALSE FALSE FALSE FALSE FALSE FALSE FALSE FALSE FALSE FALSE FALSE FALSE FALSE FALSE FALSE FALSE FALSE FALSE FALSE FALSE FALSE FALSE FALSE FALSE FALSE FALSE FALSE FALSE FALSE FALSE FALSE FALSE FALSE FALSE FALSE FALSE FALSE FALSE FALSE FALSE FALSE FALSE FALSE FALSE FALSE FALSE FALSE FALSE FALSE FALSE FALSE FALSE FALSE FALSE FALSE FALSE FALSE FALSE
c __CPROVER_malloc_object#1 FALSE FALSE FALSE FALSE FALSE FALSE FALSE FALSE FALSE FALSE FALSE FALSE FALSE FALSE FALSE FALSE FALSE FALSE FALSE FALSE FALSE FALSE FALSE FALSE FALSE FALSE FALSE FALSE FALSE FALSE FALSE FALSE FALSE FALSE FALSE FALSE FALSE FALSE FALSE FALSE FALSE FALSE FALSE FALSE FALSE FALSE FALSE FALSE FALSE FALSE FALSE FALSE FALSE FALSE FALSE FALSE FALSE FALSE FALSE FALSE FALSE FALSE FALSE FALSE
c __CPROVER_malloc_size#1 FALSE FALSE FALSE FALSE FALSE FALSE FALSE FALSE FALSE FALSE FALSE FALSE FALSE FALSE FALSE FALSE FALSE FALSE FALSE FALSE FALSE FALSE FALSE FALSE FALSE FALSE FALSE FALSE FALSE FALSE FALSE FALSE FALSE FALSE FALSE FALSE FALSE FALSE FALSE FALSE FALSE FALSE FALSE FALSE FALSE FALSE FALSE FALSE FALSE FALSE FALSE FALSE FALSE FALSE FALSE FALSE FALSE FALSE FALSE FALSE FALSE FALSE FALSE FALSE
c check::1::x!0@1#1 14 15 16 17 18 19 20 21 22 23 24 25 26 27 28 29
c __CPROVER_memory_leak#1 FALSE FALSE FALSE FALSE FALSE FALSE FALSE FALSE FALSE FALSE FALSE FALSE FALSE FALSE FALSE FALSE FALSE FALSE FALSE FALSE FALSE FALSE FALSE FALSE FALSE FALSE FALSE FALSE FALSE FALSE FALSE FALSE FALSE FALSE FALSE FALSE FALSE FALSE FALSE FALSE FALSE FALSE FALSE FALSE FALSE FALSE FALSE FALSE FALSE FALSE FALSE FALSE FALSE FALSE FALSE FALSE FALSE FALSE FALSE FALSE FALSE FALSE FALSE FALSE
